p cnf 55 443
c one port of a gate receives one connection
-1 -2 0
-1 -3 0
-4 -1 0
-3 -2 0
-4 -3 0
-5 -6 0
-5 -7 0
-5 -8 0
-9 -5 0
-7 -6 0
-9 -7 0
-9 -8 0
-10 -5 0
-8 -6 0
-10 -9 0
-8 -7 0
-10 -8 0
-11 -12 0
-11 -13 0
-11 -14 0
-11 -15 0
-16 -11 0
-13 -12 0
-16 -13 0
-16 -14 0
-16 -15 0
-17 -11 0
-14 -12 0
-17 -16 0
-14 -13 0
-17 -14 0
-17 -15 0
-18 -11 0
-15 -12 0
-18 -16 0
-15 -13 0
-18 -17 0
-15 -14 0
-18 -15 0
1 4 0
2 3 0
5 9 10 0
6 7 8 0
11 16 17 18 0
12 13 14 15 0
c one output of the circuit receives one connection
-19 -20 0
-21 -20 0
-21 -19 0
-22 -20 0
-22 -19 0
-22 -21 0
-23 -20 0
-23 -19 0
-23 -21 0
-23 -22 0
20 19 21 22 23 0
c input gate has input value
-24 0
25 0
-26 0
27 0
-28 0
-29 0
30 0
31 0
c internal gates produce calculated value
-4 -2 28 24 -32 33 0
-4 -2 28 24 32 -33 0
-4 -2 28 -24 -32 34 0
-4 -2 28 -24 32 -34 0
-4 -2 -28 24 -32 35 0
-4 -2 -28 24 32 -35 0
-4 -2 -28 -24 -32 36 0
-4 -2 -28 -24 32 -36 0
-4 -2 29 25 -37 33 0
-4 -2 29 25 37 -33 0
-4 -2 29 -25 -37 34 0
-4 -2 29 -25 37 -34 0
-4 -2 -29 25 -37 35 0
-4 -2 -29 25 37 -35 0
-4 -2 -29 -25 -37 36 0
-4 -2 -29 -25 37 -36 0
-4 -2 30 26 -38 33 0
-4 -2 30 26 38 -33 0
-4 -2 30 -26 -38 34 0
-4 -2 30 -26 38 -34 0
-4 -2 -30 26 -38 35 0
-4 -2 -30 26 38 -35 0
-4 -2 -30 -26 -38 36 0
-4 -2 -30 -26 38 -36 0
-4 -2 31 27 -39 33 0
-4 -2 31 27 39 -33 0
-4 -2 31 -27 -39 34 0
-4 -2 31 -27 39 -34 0
-4 -2 -31 27 -39 35 0
-4 -2 -31 27 39 -35 0
-4 -2 -31 -27 -39 36 0
-4 -2 -31 -27 39 -36 0
-9 -6 28 24 -40 41 0
-9 -6 28 24 40 -41 0
-9 -6 28 -24 -40 42 0
-9 -6 28 -24 40 -42 0
-9 -6 -28 24 -40 43 0
-9 -6 -28 24 40 -43 0
-9 -6 -28 -24 -40 44 0
-9 -6 -28 -24 40 -44 0
-9 -6 29 25 -45 41 0
-9 -6 29 25 45 -41 0
-9 -6 29 -25 -45 42 0
-9 -6 29 -25 45 -42 0
-9 -6 -29 25 -45 43 0
-9 -6 -29 25 45 -43 0
-9 -6 -29 -25 -45 44 0
-9 -6 -29 -25 45 -44 0
-9 -6 30 26 -46 41 0
-9 -6 30 26 46 -41 0
-9 -6 30 -26 -46 42 0
-9 -6 30 -26 46 -42 0
-9 -6 -30 26 -46 43 0
-9 -6 -30 26 46 -43 0
-9 -6 -30 -26 -46 44 0
-9 -6 -30 -26 46 -44 0
-9 -6 31 27 -47 41 0
-9 -6 31 27 47 -41 0
-9 -6 31 -27 -47 42 0
-9 -6 31 -27 47 -42 0
-9 -6 -31 27 -47 43 0
-9 -6 -31 27 47 -43 0
-9 -6 -31 -27 -47 44 0
-9 -6 -31 -27 47 -44 0
-10 -6 32 24 -40 41 0
-10 -6 32 24 40 -41 0
-10 -6 32 -24 -40 42 0
-10 -6 32 -24 40 -42 0
-10 -6 -32 24 -40 43 0
-10 -6 -32 24 40 -43 0
-10 -6 -32 -24 -40 44 0
-10 -6 -32 -24 40 -44 0
-10 -6 37 25 -45 41 0
-10 -6 37 25 45 -41 0
-10 -6 37 -25 -45 42 0
-10 -6 37 -25 45 -42 0
-10 -6 -37 25 -45 43 0
-10 -6 -37 25 45 -43 0
-10 -6 -37 -25 -45 44 0
-10 -6 -37 -25 45 -44 0
-10 -6 38 26 -46 41 0
-10 -6 38 26 46 -41 0
-10 -6 38 -26 -46 42 0
-10 -6 38 -26 46 -42 0
-10 -6 -38 26 -46 43 0
-10 -6 -38 26 46 -43 0
-10 -6 -38 -26 -46 44 0
-10 -6 -38 -26 46 -44 0
-10 -6 39 27 -47 41 0
-10 -6 39 27 47 -41 0
-10 -6 39 -27 -47 42 0
-10 -6 39 -27 47 -42 0
-10 -6 -39 27 -47 43 0
-10 -6 -39 27 47 -43 0
-10 -6 -39 -27 -47 44 0
-10 -6 -39 -27 47 -44 0
-10 -7 32 28 -40 41 0
-10 -7 32 28 40 -41 0
-10 -7 32 -28 -40 42 0
-10 -7 32 -28 40 -42 0
-10 -7 -32 28 -40 43 0
-10 -7 -32 28 40 -43 0
-10 -7 -32 -28 -40 44 0
-10 -7 -32 -28 40 -44 0
-10 -7 37 29 -45 41 0
-10 -7 37 29 45 -41 0
-10 -7 37 -29 -45 42 0
-10 -7 37 -29 45 -42 0
-10 -7 -37 29 -45 43 0
-10 -7 -37 29 45 -43 0
-10 -7 -37 -29 -45 44 0
-10 -7 -37 -29 45 -44 0
-10 -7 38 30 -46 41 0
-10 -7 38 30 46 -41 0
-10 -7 38 -30 -46 42 0
-10 -7 38 -30 46 -42 0
-10 -7 -38 30 -46 43 0
-10 -7 -38 30 46 -43 0
-10 -7 -38 -30 -46 44 0
-10 -7 -38 -30 46 -44 0
-10 -7 39 31 -47 41 0
-10 -7 39 31 47 -41 0
-10 -7 39 -31 -47 42 0
-10 -7 39 -31 47 -42 0
-10 -7 -39 31 -47 43 0
-10 -7 -39 31 47 -43 0
-10 -7 -39 -31 -47 44 0
-10 -7 -39 -31 47 -44 0
-16 -12 28 24 -48 49 0
-16 -12 28 24 48 -49 0
-16 -12 28 -24 -48 50 0
-16 -12 28 -24 48 -50 0
-16 -12 -28 24 -48 51 0
-16 -12 -28 24 48 -51 0
-16 -12 -28 -24 -48 52 0
-16 -12 -28 -24 48 -52 0
-16 -12 29 25 -53 49 0
-16 -12 29 25 53 -49 0
-16 -12 29 -25 -53 50 0
-16 -12 29 -25 53 -50 0
-16 -12 -29 25 -53 51 0
-16 -12 -29 25 53 -51 0
-16 -12 -29 -25 -53 52 0
-16 -12 -29 -25 53 -52 0
-16 -12 30 26 -54 49 0
-16 -12 30 26 54 -49 0
-16 -12 30 -26 -54 50 0
-16 -12 30 -26 54 -50 0
-16 -12 -30 26 -54 51 0
-16 -12 -30 26 54 -51 0
-16 -12 -30 -26 -54 52 0
-16 -12 -30 -26 54 -52 0
-16 -12 31 27 -55 49 0
-16 -12 31 27 55 -49 0
-16 -12 31 -27 -55 50 0
-16 -12 31 -27 55 -50 0
-16 -12 -31 27 -55 51 0
-16 -12 -31 27 55 -51 0
-16 -12 -31 -27 -55 52 0
-16 -12 -31 -27 55 -52 0
-17 -12 32 24 -48 49 0
-17 -12 32 24 48 -49 0
-17 -12 32 -24 -48 50 0
-17 -12 32 -24 48 -50 0
-17 -12 -32 24 -48 51 0
-17 -12 -32 24 48 -51 0
-17 -12 -32 -24 -48 52 0
-17 -12 -32 -24 48 -52 0
-17 -12 37 25 -53 49 0
-17 -12 37 25 53 -49 0
-17 -12 37 -25 -53 50 0
-17 -12 37 -25 53 -50 0
-17 -12 -37 25 -53 51 0
-17 -12 -37 25 53 -51 0
-17 -12 -37 -25 -53 52 0
-17 -12 -37 -25 53 -52 0
-17 -12 38 26 -54 49 0
-17 -12 38 26 54 -49 0
-17 -12 38 -26 -54 50 0
-17 -12 38 -26 54 -50 0
-17 -12 -38 26 -54 51 0
-17 -12 -38 26 54 -51 0
-17 -12 -38 -26 -54 52 0
-17 -12 -38 -26 54 -52 0
-17 -12 39 27 -55 49 0
-17 -12 39 27 55 -49 0
-17 -12 39 -27 -55 50 0
-17 -12 39 -27 55 -50 0
-17 -12 -39 27 -55 51 0
-17 -12 -39 27 55 -51 0
-17 -12 -39 -27 -55 52 0
-17 -12 -39 -27 55 -52 0
-17 -13 32 28 -48 49 0
-17 -13 32 28 48 -49 0
-17 -13 32 -28 -48 50 0
-17 -13 32 -28 48 -50 0
-17 -13 -32 28 -48 51 0
-17 -13 -32 28 48 -51 0
-17 -13 -32 -28 -48 52 0
-17 -13 -32 -28 48 -52 0
-17 -13 37 29 -53 49 0
-17 -13 37 29 53 -49 0
-17 -13 37 -29 -53 50 0
-17 -13 37 -29 53 -50 0
-17 -13 -37 29 -53 51 0
-17 -13 -37 29 53 -51 0
-17 -13 -37 -29 -53 52 0
-17 -13 -37 -29 53 -52 0
-17 -13 38 30 -54 49 0
-17 -13 38 30 54 -49 0
-17 -13 38 -30 -54 50 0
-17 -13 38 -30 54 -50 0
-17 -13 -38 30 -54 51 0
-17 -13 -38 30 54 -51 0
-17 -13 -38 -30 -54 52 0
-17 -13 -38 -30 54 -52 0
-17 -13 39 31 -55 49 0
-17 -13 39 31 55 -49 0
-17 -13 39 -31 -55 50 0
-17 -13 39 -31 55 -50 0
-17 -13 -39 31 -55 51 0
-17 -13 -39 31 55 -51 0
-17 -13 -39 -31 -55 52 0
-17 -13 -39 -31 55 -52 0
-18 -12 40 24 -48 49 0
-18 -12 40 24 48 -49 0
-18 -12 40 -24 -48 50 0
-18 -12 40 -24 48 -50 0
-18 -12 -40 24 -48 51 0
-18 -12 -40 24 48 -51 0
-18 -12 -40 -24 -48 52 0
-18 -12 -40 -24 48 -52 0
-18 -12 45 25 -53 49 0
-18 -12 45 25 53 -49 0
-18 -12 45 -25 -53 50 0
-18 -12 45 -25 53 -50 0
-18 -12 -45 25 -53 51 0
-18 -12 -45 25 53 -51 0
-18 -12 -45 -25 -53 52 0
-18 -12 -45 -25 53 -52 0
-18 -12 46 26 -54 49 0
-18 -12 46 26 54 -49 0
-18 -12 46 -26 -54 50 0
-18 -12 46 -26 54 -50 0
-18 -12 -46 26 -54 51 0
-18 -12 -46 26 54 -51 0
-18 -12 -46 -26 -54 52 0
-18 -12 -46 -26 54 -52 0
-18 -12 47 27 -55 49 0
-18 -12 47 27 55 -49 0
-18 -12 47 -27 -55 50 0
-18 -12 47 -27 55 -50 0
-18 -12 -47 27 -55 51 0
-18 -12 -47 27 55 -51 0
-18 -12 -47 -27 -55 52 0
-18 -12 -47 -27 55 -52 0
-18 -13 40 28 -48 49 0
-18 -13 40 28 48 -49 0
-18 -13 40 -28 -48 50 0
-18 -13 40 -28 48 -50 0
-18 -13 -40 28 -48 51 0
-18 -13 -40 28 48 -51 0
-18 -13 -40 -28 -48 52 0
-18 -13 -40 -28 48 -52 0
-18 -13 45 29 -53 49 0
-18 -13 45 29 53 -49 0
-18 -13 45 -29 -53 50 0
-18 -13 45 -29 53 -50 0
-18 -13 -45 29 -53 51 0
-18 -13 -45 29 53 -51 0
-18 -13 -45 -29 -53 52 0
-18 -13 -45 -29 53 -52 0
-18 -13 46 30 -54 49 0
-18 -13 46 30 54 -49 0
-18 -13 46 -30 -54 50 0
-18 -13 46 -30 54 -50 0
-18 -13 -46 30 -54 51 0
-18 -13 -46 30 54 -51 0
-18 -13 -46 -30 -54 52 0
-18 -13 -46 -30 54 -52 0
-18 -13 47 31 -55 49 0
-18 -13 47 31 55 -49 0
-18 -13 47 -31 -55 50 0
-18 -13 47 -31 55 -50 0
-18 -13 -47 31 -55 51 0
-18 -13 -47 31 55 -51 0
-18 -13 -47 -31 -55 52 0
-18 -13 -47 -31 55 -52 0
-18 -14 40 32 -48 49 0
-18 -14 40 32 48 -49 0
-18 -14 40 -32 -48 50 0
-18 -14 40 -32 48 -50 0
-18 -14 -40 32 -48 51 0
-18 -14 -40 32 48 -51 0
-18 -14 -40 -32 -48 52 0
-18 -14 -40 -32 48 -52 0
-18 -14 45 37 -53 49 0
-18 -14 45 37 53 -49 0
-18 -14 45 -37 -53 50 0
-18 -14 45 -37 53 -50 0
-18 -14 -45 37 -53 51 0
-18 -14 -45 37 53 -51 0
-18 -14 -45 -37 -53 52 0
-18 -14 -45 -37 53 -52 0
-18 -14 46 38 -54 49 0
-18 -14 46 38 54 -49 0
-18 -14 46 -38 -54 50 0
-18 -14 46 -38 54 -50 0
-18 -14 -46 38 -54 51 0
-18 -14 -46 38 54 -51 0
-18 -14 -46 -38 -54 52 0
-18 -14 -46 -38 54 -52 0
-18 -14 47 39 -55 49 0
-18 -14 47 39 55 -49 0
-18 -14 47 -39 -55 50 0
-18 -14 47 -39 55 -50 0
-18 -14 -47 39 -55 51 0
-18 -14 -47 39 55 -51 0
-18 -14 -47 -39 -55 52 0
-18 -14 -47 -39 55 -52 0
c outputs match truth table
-20 -24 0
-19 -28 0
-21 -32 0
-22 -40 0
-23 -48 0
-20 25 0
-19 29 0
-21 37 0
-22 45 0
-23 53 0
-20 26 0
-19 30 0
-21 38 0
-22 46 0
-23 54 0
-20 -27 0
-19 -31 0
-21 -39 0
-22 -47 0
-23 -55 0
c internal gates restricted to a subset of functions
33 34 35 36 0
33 34 -35 36 0
33 34 -35 -36 0
33 -34 35 36 0
33 -34 35 -36 0
33 -34 -35 36 0
-33 34 35 36 0
-33 34 35 -36 0
-33 34 -35 -36 0
-33 -34 35 36 0
-33 -34 35 -36 0
-33 -34 -35 36 0
-33 -34 -35 -36 0
41 42 43 44 0
41 42 -43 44 0
41 42 -43 -44 0
41 -42 43 44 0
41 -42 43 -44 0
41 -42 -43 44 0
-41 42 43 44 0
-41 42 43 -44 0
-41 42 -43 -44 0
-41 -42 43 44 0
-41 -42 43 -44 0
-41 -42 -43 44 0
-41 -42 -43 -44 0
49 50 51 52 0
49 50 -51 52 0
49 50 -51 -52 0
49 -50 51 52 0
49 -50 51 -52 0
49 -50 -51 52 0
-49 50 51 52 0
-49 50 51 -52 0
-49 50 -51 -52 0
-49 -50 51 52 0
-49 -50 51 -52 0
-49 -50 -51 52 0
-49 -50 -51 -52 0
c variable names:
c c_2_0_0 1
c c_2_1_0 2
c c_2_1_1 3
c c_2_0_1 4
c c_3_0_0 5
c c_3_1_0 6
c c_3_1_1 7
c c_3_1_2 8
c c_3_0_1 9
c c_3_0_2 10
c c_4_0_0 11
c c_4_1_0 12
c c_4_1_1 13
c c_4_1_2 14
c c_4_1_3 15
c c_4_0_1 16
c c_4_0_2 17
c c_4_0_3 18
c o_1_0 19
c o_0_0 20
c o_2_0 21
c o_3_0 22
c o_4_0 23
c v_0_0 24
c v_0_1 25
c v_0_2 26
c v_0_3 27
c v_1_0 28
c v_1_1 29
c v_1_2 30
c v_1_3 31
c v_2_0 32
c t_2_0_0 33
c t_2_0_1 34
c t_2_1_0 35
c t_2_1_1 36
c v_2_1 37
c v_2_2 38
c v_2_3 39
c v_3_0 40
c t_3_0_0 41
c t_3_0_1 42
c t_3_1_0 43
c t_3_1_1 44
c v_3_1 45
c v_3_2 46
c v_3_3 47
c v_4_0 48
c t_4_0_0 49
c t_4_0_1 50
c t_4_1_0 51
c t_4_1_1 52
c v_4_1 53
c v_4_2 54
c v_4_3 55
